NAME: tsp15_7
COMMENT: 15-tsp problem (Padberg/Rinaldi)
TYPE: TSP
DIMENSION: 15
EDGE_WEIGHT_TYPE : EUC_2D
NODE_COORD_SECTION
1 13 8
2 15 36
3 23 18
4 9 13
5 6 38
6 11 25
7 15 39
8 20 27
9 22 17
10 14 13
11 21 19
12 5 13
13 3 39
14 30 19
15 34 34
